files/upTests/tuples_nested4/0001.eprime.solution
language ESSENCE' 1.0
$ minion Nodes: 2
$ minion TotalTime: 0.000694
$ Savile Row TotalTime: 0.312
letting y_tuple1_tuple1 be 14
letting y_tuple1_tuple2_tuple1 be 15
letting y_tuple1_tuple2_tuple2 be 16
letting y_tuple1_tuple2_tuple3 be 17
letting y_tuple2 be 1
letting y_tuple4 be 4
letting y_tuple5_tuple1 be 5
letting y_tuple5_tuple2 be 6
letting y_tuple3_Explicit_tuple1 be [10, 11]
letting y_tuple3_Explicit_tuple2 be [12, 13]
letting y_tuple5_tuple3_Occurrence be [1, 1, 1]
